c FILE: i080-134

c SOURCE: From steinlib

c DESCRIPTION: Steinlib instance with 80 nodes and 160 edges.

p edge 80 160
e 1 40
e 1 42
e 1 46
e 1 51
e 1 57
e 1 80
e 2 42
e 2 56
e 2 63
e 3 21
e 3 40
e 4 20
e 4 32
e 4 51
e 4 60
e 4 74
e 5 14
e 5 33
e 5 40
e 5 54
e 6 11
e 6 19
e 6 51
e 6 54
e 6 55
e 6 62
e 6 74
e 6 77
e 7 24
e 7 51
e 7 58
e 7 62
e 7 67
e 7 75
e 8 45
e 8 49
e 8 58
e 8 72
e 9 50
e 9 61
e 10 74
e 10 80
e 11 30
e 11 58
e 11 74
e 12 30
e 12 43
e 12 52
e 12 67
e 12 75
e 12 77
e 13 77
e 14 15
e 14 17
e 14 35
e 14 36
e 14 42
e 14 58
e 15 19
e 15 20
e 15 25
e 15 32
e 16 36
e 16 40
e 16 52
e 17 70
e 18 61
e 19 29
e 19 30
e 19 40
e 19 43
e 19 70
e 19 72
e 20 34
e 21 39
e 21 56
e 22 40
e 23 27
e 23 40
e 23 42
e 23 58
e 23 65
e 24 64
e 24 70
e 25 29
e 25 42
e 26 32
e 26 59
e 27 40
e 27 43
e 27 46
e 27 66
e 27 72
e 28 41
e 28 50
e 28 59
e 28 60
e 28 69
e 29 37
e 29 38
e 29 62
e 29 71
e 30 63
e 30 76
e 31 34
e 31 44
e 31 70
e 31 80
e 32 43
e 32 58
e 33 42
e 33 54
e 33 64
e 33 65
e 33 71
e 34 38
e 34 41
e 34 55
e 34 60
e 34 78
e 35 45
e 35 50
e 36 78
e 37 64
e 39 70
e 39 77
e 40 77
e 40 80
e 42 75
e 43 68
e 43 80
e 44 71
e 45 76
e 46 60
e 47 64
e 47 65
e 47 72
e 48 76
e 49 69
e 49 80
e 51 53
e 51 78
e 53 63
e 53 66
e 54 72
e 56 67
e 56 73
e 57 59
e 57 77
e 58 63
e 58 79
e 61 64
e 61 70
e 62 80
e 65 67
e 66 73
e 67 76
e 68 71
e 75 77
e 76 78
